language Essence 1.3

letting costTC be
        function((1, 1) --> 7, (1, 2) --> 8, (1, 3) --> 7, (1, 4) --> 4, (2, 1) --> 11, (2, 2) --> 10, (2, 3) --> 3,
                 (2, 4) --> 7, (3, 1) --> 11, (3, 2) --> 6, (3, 3) --> 8, (3, 4) --> 4, (4, 1) --> 6, (4, 2) --> 10,
                 (4, 3) --> 3, (4, 4) --> 7, (5, 1) --> 3, (5, 2) --> 2, (5, 3) --> 3, (5, 4) --> 12, (6, 1) --> 3,
                 (6, 2) --> 9, (6, 3) --> 10, (6, 4) --> 7, (7, 1) --> 12, (7, 2) --> 8, (7, 3) --> 12, (7, 4) --> 1,
                 (8, 1) --> 11, (8, 2) --> 11, (8, 3) --> 6, (8, 4) --> 5, (9, 1) --> 9, (9, 2) --> 8, (9, 3) --> 12,
                 (9, 4) --> 7, (10, 1) --> 2, (10, 2) --> 10, (10, 3) --> 11, (10, 4) --> 6, (11, 1) --> 4,
                 (11, 2) --> 11, (11, 3) --> 8, (11, 4) --> 4, (12, 1) --> 4, (12, 2) --> 1, (12, 3) --> 10,
                 (12, 4) --> 10, (13, 1) --> 8, (13, 2) --> 7, (13, 3) --> 10, (13, 4) --> 11, (14, 1) --> 12,
                 (14, 2) --> 3, (14, 3) --> 6, (14, 4) --> 4, (15, 1) --> 9, (15, 2) --> 6, (15, 3) --> 12,
                 (15, 4) --> 12, (16, 1) --> 1, (16, 2) --> 9, (16, 3) --> 7, (16, 4) --> 3, (17, 1) --> 4,
                 (17, 2) --> 10, (17, 3) --> 11, (17, 4) --> 7, (18, 1) --> 12, (18, 2) --> 3, (18, 3) --> 3,
                 (18, 4) --> 9, (19, 1) --> 1, (19, 2) --> 4, (19, 3) --> 3, (19, 4) --> 3, (20, 1) --> 10,
                 (20, 2) --> 1, (20, 3) --> 5, (20, 4) --> 7, (21, 1) --> 10, (21, 2) --> 6, (21, 3) --> 12,
                 (21, 4) --> 4, (22, 1) --> 7, (22, 2) --> 11, (22, 3) --> 9, (22, 4) --> 6, (23, 1) --> 5,
                 (23, 2) --> 3, (23, 3) --> 1, (23, 4) --> 9, (24, 1) --> 10, (24, 2) --> 5, (24, 3) --> 10,
                 (24, 4) --> 9, (25, 1) --> 10, (25, 2) --> 3, (25, 3) --> 1, (25, 4) --> 11, (26, 1) --> 3,
                 (26, 2) --> 11, (26, 3) --> 1, (26, 4) --> 5, (27, 1) --> 10, (27, 2) --> 5, (27, 3) --> 11,
                 (27, 4) --> 4, (28, 1) --> 9, (28, 2) --> 12, (28, 3) --> 4, (28, 4) --> 3, (29, 1) --> 3,
                 (29, 2) --> 8, (29, 3) --> 8, (29, 4) --> 11, (30, 1) --> 3, (30, 2) --> 4, (30, 3) --> 12,
                 (30, 4) --> 3, (31, 1) --> 3, (31, 2) --> 11, (31, 3) --> 1, (31, 4) --> 5, (32, 1) --> 3,
                 (32, 2) --> 9, (32, 3) --> 8, (32, 4) --> 5, (33, 1) --> 5, (33, 2) --> 3, (33, 3) --> 6,
                 (33, 4) --> 3, (34, 1) --> 7, (34, 2) --> 7, (34, 3) --> 12, (34, 4) --> 7, (35, 1) --> 5,
                 (35, 2) --> 4, (35, 3) --> 10, (35, 4) --> 2, (36, 1) --> 11, (36, 2) --> 10, (36, 3) --> 7,
                 (36, 4) --> 9, (37, 1) --> 3, (37, 2) --> 11, (37, 3) --> 11, (37, 4) --> 4, (38, 1) --> 6,
                 (38, 2) --> 3, (38, 3) --> 6, (38, 4) --> 5, (39, 1) --> 12, (39, 2) --> 5, (39, 3) --> 1,
                 (39, 4) --> 4, (40, 1) --> 5, (40, 2) --> 9, (40, 3) --> 1, (40, 4) --> 9, (41, 1) --> 7,
                 (41, 2) --> 6, (41, 3) --> 4, (41, 4) --> 11, (42, 1) --> 12, (42, 2) --> 7, (42, 3) --> 11,
                 (42, 4) --> 7, (43, 1) --> 8, (43, 2) --> 11, (43, 3) --> 10, (43, 4) --> 11)
letting costWT be
        function((1, 1) --> 3, (1, 2) --> 1, (1, 3) --> 3, (1, 4) --> 3, (1, 5) --> 1, (1, 6) --> 2, (1, 7) --> 3,
                 (1, 8) --> 1, (1, 9) --> 2, (1, 10) --> 1, (1, 11) --> 2, (1, 12) --> 3, (1, 13) --> 3, (1, 14) --> 1,
                 (1, 15) --> 1, (1, 16) --> 3, (1, 17) --> 3, (1, 18) --> 1, (1, 19) --> 1, (1, 20) --> 3,
                 (1, 21) --> 1, (1, 22) --> 2, (1, 23) --> 3, (1, 24) --> 2, (1, 25) --> 3, (1, 26) --> 2,
                 (1, 27) --> 3, (1, 28) --> 1, (1, 29) --> 1, (1, 30) --> 2, (1, 31) --> 3, (1, 32) --> 3,
                 (1, 33) --> 3, (1, 34) --> 2, (1, 35) --> 3, (1, 36) --> 3, (1, 37) --> 2, (1, 38) --> 2,
                 (1, 39) --> 1, (1, 40) --> 3, (1, 41) --> 1, (1, 42) --> 2, (1, 43) --> 2, (2, 1) --> 2, (2, 2) --> 1,
                 (2, 3) --> 1, (2, 4) --> 2, (2, 5) --> 2, (2, 6) --> 3, (2, 7) --> 3, (2, 8) --> 1, (2, 9) --> 1,
                 (2, 10) --> 2, (2, 11) --> 3, (2, 12) --> 2, (2, 13) --> 3, (2, 14) --> 1, (2, 15) --> 1,
                 (2, 16) --> 3, (2, 17) --> 2, (2, 18) --> 1, (2, 19) --> 1, (2, 20) --> 2, (2, 21) --> 3,
                 (2, 22) --> 2, (2, 23) --> 2, (2, 24) --> 2, (2, 25) --> 3, (2, 26) --> 2, (2, 27) --> 1,
                 (2, 28) --> 1, (2, 29) --> 3, (2, 30) --> 2, (2, 31) --> 2, (2, 32) --> 2, (2, 33) --> 1,
                 (2, 34) --> 2, (2, 35) --> 3, (2, 36) --> 2, (2, 37) --> 2, (2, 38) --> 2, (2, 39) --> 2,
                 (2, 40) --> 2, (2, 41) --> 1, (2, 42) --> 2, (2, 43) --> 3, (3, 1) --> 3, (3, 2) --> 3, (3, 3) --> 2,
                 (3, 4) --> 1, (3, 5) --> 2, (3, 6) --> 2, (3, 7) --> 2, (3, 8) --> 1, (3, 9) --> 1, (3, 10) --> 2,
                 (3, 11) --> 1, (3, 12) --> 3, (3, 13) --> 1, (3, 14) --> 3, (3, 15) --> 1, (3, 16) --> 3,
                 (3, 17) --> 1, (3, 18) --> 1, (3, 19) --> 2, (3, 20) --> 3, (3, 21) --> 3, (3, 22) --> 2,
                 (3, 23) --> 2, (3, 24) --> 3, (3, 25) --> 3, (3, 26) --> 3, (3, 27) --> 1, (3, 28) --> 1,
                 (3, 29) --> 2, (3, 30) --> 1, (3, 31) --> 3, (3, 32) --> 1, (3, 33) --> 2, (3, 34) --> 2,
                 (3, 35) --> 3, (3, 36) --> 2, (3, 37) --> 2, (3, 38) --> 2, (3, 39) --> 2, (3, 40) --> 2,
                 (3, 41) --> 2, (3, 42) --> 2, (3, 43) --> 3, (4, 1) --> 1, (4, 2) --> 2, (4, 3) --> 1, (4, 4) --> 1,
                 (4, 5) --> 2, (4, 6) --> 3, (4, 7) --> 1, (4, 8) --> 2, (4, 9) --> 1, (4, 10) --> 2, (4, 11) --> 2,
                 (4, 12) --> 1, (4, 13) --> 1, (4, 14) --> 3, (4, 15) --> 2, (4, 16) --> 1, (4, 17) --> 1,
                 (4, 18) --> 1, (4, 19) --> 3, (4, 20) --> 3, (4, 21) --> 1, (4, 22) --> 3, (4, 23) --> 3,
                 (4, 24) --> 1, (4, 25) --> 1, (4, 26) --> 2, (4, 27) --> 1, (4, 28) --> 1, (4, 29) --> 2,
                 (4, 30) --> 2, (4, 31) --> 3, (4, 32) --> 3, (4, 33) --> 2, (4, 34) --> 1, (4, 35) --> 2,
                 (4, 36) --> 2, (4, 37) --> 1, (4, 38) --> 3, (4, 39) --> 2, (4, 40) --> 1, (4, 41) --> 1,
                 (4, 42) --> 2, (4, 43) --> 3, (5, 1) --> 2, (5, 2) --> 1, (5, 3) --> 2, (5, 4) --> 3, (5, 5) --> 2,
                 (5, 6) --> 2, (5, 7) --> 1, (5, 8) --> 2, (5, 9) --> 3, (5, 10) --> 1, (5, 11) --> 3, (5, 12) --> 2,
                 (5, 13) --> 3, (5, 14) --> 3, (5, 15) --> 3, (5, 16) --> 1, (5, 17) --> 1, (5, 18) --> 3,
                 (5, 19) --> 1, (5, 20) --> 1, (5, 21) --> 2, (5, 22) --> 3, (5, 23) --> 3, (5, 24) --> 2,
                 (5, 25) --> 3, (5, 26) --> 3, (5, 27) --> 2, (5, 28) --> 2, (5, 29) --> 2, (5, 30) --> 1,
                 (5, 31) --> 1, (5, 32) --> 2, (5, 33) --> 2, (5, 34) --> 3, (5, 35) --> 1, (5, 36) --> 2,
                 (5, 37) --> 3, (5, 38) --> 1, (5, 39) --> 2, (5, 40) --> 3, (5, 41) --> 3, (5, 42) --> 1,
                 (5, 43) --> 2, (6, 1) --> 3, (6, 2) --> 1, (6, 3) --> 1, (6, 4) --> 1, (6, 5) --> 3, (6, 6) --> 3,
                 (6, 7) --> 1, (6, 8) --> 3, (6, 9) --> 3, (6, 10) --> 2, (6, 11) --> 1, (6, 12) --> 1, (6, 13) --> 1,
                 (6, 14) --> 1, (6, 15) --> 3, (6, 16) --> 1, (6, 17) --> 2, (6, 18) --> 1, (6, 19) --> 3,
                 (6, 20) --> 2, (6, 21) --> 2, (6, 22) --> 2, (6, 23) --> 3, (6, 24) --> 1, (6, 25) --> 2,
                 (6, 26) --> 2, (6, 27) --> 2, (6, 28) --> 3, (6, 29) --> 2, (6, 30) --> 2, (6, 31) --> 3,
                 (6, 32) --> 1, (6, 33) --> 1, (6, 34) --> 1, (6, 35) --> 2, (6, 36) --> 3, (6, 37) --> 1,
                 (6, 38) --> 3, (6, 39) --> 2, (6, 40) --> 2, (6, 41) --> 2, (6, 42) --> 1, (6, 43) --> 3, (7, 1) --> 1,
                 (7, 2) --> 2, (7, 3) --> 1, (7, 4) --> 2, (7, 5) --> 1, (7, 6) --> 3, (7, 7) --> 1, (7, 8) --> 1,
                 (7, 9) --> 3, (7, 10) --> 3, (7, 11) --> 3, (7, 12) --> 2, (7, 13) --> 3, (7, 14) --> 2, (7, 15) --> 1,
                 (7, 16) --> 1, (7, 17) --> 1, (7, 18) --> 2, (7, 19) --> 3, (7, 20) --> 2, (7, 21) --> 3,
                 (7, 22) --> 2, (7, 23) --> 3, (7, 24) --> 1, (7, 25) --> 2, (7, 26) --> 2, (7, 27) --> 3,
                 (7, 28) --> 1, (7, 29) --> 2, (7, 30) --> 2, (7, 31) --> 1, (7, 32) --> 3, (7, 33) --> 1,
                 (7, 34) --> 3, (7, 35) --> 3, (7, 36) --> 2, (7, 37) --> 2, (7, 38) --> 2, (7, 39) --> 3,
                 (7, 40) --> 2, (7, 41) --> 1, (7, 42) --> 1, (7, 43) --> 1, (8, 1) --> 2, (8, 2) --> 2, (8, 3) --> 1,
                 (8, 4) --> 3, (8, 5) --> 1, (8, 6) --> 2, (8, 7) --> 3, (8, 8) --> 3, (8, 9) --> 3, (8, 10) --> 3,
                 (8, 11) --> 1, (8, 12) --> 3, (8, 13) --> 2, (8, 14) --> 2, (8, 15) --> 3, (8, 16) --> 2,
                 (8, 17) --> 1, (8, 18) --> 2, (8, 19) --> 1, (8, 20) --> 1, (8, 21) --> 2, (8, 22) --> 1,
                 (8, 23) --> 2, (8, 24) --> 1, (8, 25) --> 2, (8, 26) --> 1, (8, 27) --> 3, (8, 28) --> 3,
                 (8, 29) --> 3, (8, 30) --> 2, (8, 31) --> 1, (8, 32) --> 3, (8, 33) --> 1, (8, 34) --> 2,
                 (8, 35) --> 1, (8, 36) --> 2, (8, 37) --> 3, (8, 38) --> 3, (8, 39) --> 2, (8, 40) --> 1,
                 (8, 41) --> 2, (8, 42) --> 2, (8, 43) --> 3, (9, 1) --> 2, (9, 2) --> 3, (9, 3) --> 1, (9, 4) --> 1,
                 (9, 5) --> 3, (9, 6) --> 3, (9, 7) --> 3, (9, 8) --> 3, (9, 9) --> 1, (9, 10) --> 1, (9, 11) --> 2,
                 (9, 12) --> 2, (9, 13) --> 3, (9, 14) --> 1, (9, 15) --> 3, (9, 16) --> 3, (9, 17) --> 3,
                 (9, 18) --> 2, (9, 19) --> 1, (9, 20) --> 3, (9, 21) --> 2, (9, 22) --> 1, (9, 23) --> 1,
                 (9, 24) --> 1, (9, 25) --> 1, (9, 26) --> 3, (9, 27) --> 3, (9, 28) --> 2, (9, 29) --> 2,
                 (9, 30) --> 1, (9, 31) --> 1, (9, 32) --> 3, (9, 33) --> 3, (9, 34) --> 1, (9, 35) --> 2,
                 (9, 36) --> 3, (9, 37) --> 1, (9, 38) --> 1, (9, 39) --> 3, (9, 40) --> 1, (9, 41) --> 3,
                 (9, 42) --> 1, (9, 43) --> 1, (10, 1) --> 2, (10, 2) --> 1, (10, 3) --> 3, (10, 4) --> 3,
                 (10, 5) --> 2, (10, 6) --> 1, (10, 7) --> 2, (10, 8) --> 2, (10, 9) --> 2, (10, 10) --> 1,
                 (10, 11) --> 2, (10, 12) --> 2, (10, 13) --> 3, (10, 14) --> 2, (10, 15) --> 2, (10, 16) --> 1,
                 (10, 17) --> 1, (10, 18) --> 1, (10, 19) --> 1, (10, 20) --> 1, (10, 21) --> 3, (10, 22) --> 2,
                 (10, 23) --> 1, (10, 24) --> 3, (10, 25) --> 3, (10, 26) --> 1, (10, 27) --> 3, (10, 28) --> 3,
                 (10, 29) --> 1, (10, 30) --> 2, (10, 31) --> 3, (10, 32) --> 1, (10, 33) --> 3, (10, 34) --> 2,
                 (10, 35) --> 1, (10, 36) --> 3, (10, 37) --> 3, (10, 38) --> 1, (10, 39) --> 2, (10, 40) --> 1,
                 (10, 41) --> 1, (10, 42) --> 2, (10, 43) --> 2)
letting demand be function(1 --> 50, 2 --> 50, 3 --> 50, 4 --> 48)
letting maxCost be 25
letting n_customer be 4
letting n_transshipment be 43
letting n_warehouses be 10
letting stock be
        function(1 --> 32, 2 --> 32, 3 --> 32, 4 --> 32, 5 --> 32, 6 --> 32, 7 --> 32, 8 --> 32, 9 --> 32, 10 --> 32)
